54671
19, 13, 41, 32, 44, 8, 38, 35, 24, 50, 20, 7, 37, 5, 51, 40, 43, 3, 6, 28, 55, 26, 49, 23, 21, 29, 22, 10, 16, 15, 39, 46, 36, 1, 27, 33, 42, 45, 11, 31, 25, 52, 2, 14, 9, 12, 18, 4, 30, 47, 54, 34, 53, 17, 48
